n_boats=39;
n_periods=7;
capacity=[13,9,9,11,9,11,7,9,7,11,9,9,7,7,9,9,6,6,8,8,8,6,5,5,7,5,5,5,5,7,7,7,10,5,7,13,11,11,13];
crew=[2,2,2,2,4,4,4,1,2,2,2,3,4,2,3,6,2,2,4,2,4,5,4,4,2,2,4,5,2,4,2,2,2,2,2,2,4,5,7];
